n = 35;
m = 5;
p = [13,1,9,8,4];
v = [0.013,0.162,0.188,0.314,0.711];
ce = [4.934,2.974,7.896,2.422,4.729];
c = [|0,1.278,1.123,1.199,2.299|2.049,0,2.169,3.251,1.676|3.224,3.322,0,1.731,0.028|3.012,4.473,3.388,0,1.103|3.072,2.482,1.271,0.548,0|];
ct = 8.44;
maxM = 20;